data/solutions/recovery/degenerate/intermediate/binding/degenerate_intermediate_instance23/102.sol
Elapsed time: 0.07
Upper bound: 238634313.0
Planning weighted value: 9.8309218439e+11
C[0]=238634313.0
C[1]=237002283.0
C[2]=236588283.0
C[3]=233151402.0
C[4]=229040639.0
C[5]=228404769.0
C[6]=225756253.0
C[7]=223828017.0
C[8]=223123870.0
C[9]=206624736.0
C[10]=200251335.0
C[11]=0.0
y[0]=1
y[1]=4
y[2]=1
y[3]=7
y[4]=2
y[5]=5
y[6]=4
y[7]=1
y[8]=0
y[9]=10
y[10]=9
y[11]=4
y[12]=5
y[13]=3
y[14]=9
y[15]=9
y[16]=8
y[17]=7
y[18]=3
y[19]=3
y[20]=10
y[21]=7
y[22]=2
y[23]=9
y[24]=10
y[25]=1
y[26]=10
y[27]=0
y[28]=1
y[29]=0
y[30]=8
y[31]=10
y[32]=7
y[33]=3
y[34]=0
y[35]=8
y[36]=6
y[37]=1
y[38]=8
y[39]=5
y[40]=10
y[41]=9
y[42]=7
y[43]=2
y[44]=5
y[45]=4
y[46]=5
y[47]=4
y[48]=5
y[49]=8
y[50]=6
y[51]=3
y[52]=6
y[53]=4
y[54]=4
y[55]=5
y[56]=8
y[57]=7
y[58]=0
y[59]=6
y[60]=3
y[61]=9
y[62]=6
y[63]=0
y[64]=6
y[65]=5
y[66]=9
y[67]=2
y[68]=8
y[69]=5
y[70]=6
y[71]=8
y[72]=2
y[73]=5
y[74]=2
y[75]=0
y[76]=1
y[77]=2
